GLPSOL: GLPK LP/MIP Solver, v4.55
Parameter(s) specified in the command line:
 -m tmp.mod
Reading model section from tmp.mod...
Reading data section from tmp.mod...
5075 lines were read
Generating obj...
Generating kirhoff...
Generating init_charge...
Generating batt_size...
Model has been successfully generated
GLPK Simplex Optimizer, v4.55
5882 rows, 9130 columns, 19746 non-zeros
Preprocessing...
4535 rows, 8945 columns, 19311 non-zeros
Scaling...
 A: min|aij| =  1.000e+00  max|aij| =  1.000e+00  ratio =  1.000e+00
Problem data seem to be well scaled
Constructing initial basis...
Size of triangular part is 3936
      0: obj =   0.000000000e+00  infeas =  3.593e+03 (599)
    500: obj =   8.000000000e+00  infeas =  3.066e+03 (503)
   1000: obj =   3.130000000e+02  infeas =  1.169e+03 (423)
   1500: obj =   4.340000000e+02  infeas =  7.180e+02 (388)
*  1814: obj =   5.350000000e+02  infeas =  0.000e+00 (367)
*  2000: obj =   3.760000000e+02  infeas =  0.000e+00 (367)
*  2456: obj =   2.040000000e+02  infeas =  0.000e+00 (367)
OPTIMAL LP SOLUTION FOUND
Time used:   0.8 secs
Memory used: 17.9 Mb (18754044 bytes)
#OUTPUT:
204
-79 0 -9 0 -5 -52 0 0 0 -2 -45 -12 1 -27 2 -5 -2 0 7 0 -7 -27 0 2 0 -8 8 -2 -1 0 0 0 -4 0 0 0 -4 0 -7 2 0 5 -14 0 0 -9 -5 -3 0 1 0 0 0 0 0 0 -4 0 0 0 -14 0 -3 0 0 0 0 0 0 0 0 0 0 0 -5 -4 0 0 0 -5 0 0 -2 0 0 0 5 0 0 0 0 -5 0 -3 0 0 2 -12 2 0 0 -39 0 0 0 0 0 0 0 0 0 0 -14 0 -14 0 -14 0 0 0 6 0 0 0 0 0 0 0 0 -4 0 0 0 0 0 0 0 0 2 0 0 0 0 -4 0 0 2 6 0 0 0 0 3 0 0 0 -1 3 0 0 0 -20 0 0 0 0 0 2 0 0 0 0 0 0 0 0 -2 -5 2 0 0 0 0 0 0 0 0 0 0 0 3 0 0 0 0 0 0 0 0 0 0 0 0 0 0 0 -2 0 0 0 0 0 0 -4 0 0 0 0 0 0 0 19 0 0 0 -6 0 0 0 0 0 0 -2 0 0 0 0 -2 -6 0 0 0 0 0 -4 -2 0 0 0 0 0 0 -5 0 0 0 0 0 0 0 0 0 0 0 -4 6 0 8 0 0 0 0 0 8 0 0 0 0 0 0 -11 0 0 0 0 2 0 0 0 0 0 0 0 0 -18 -4 0 0 0 0 -2 0 0 0 -2 -2 -8 0 0 1 0 0 0 0 0 0 0 0 2 0 0 0 0 0 0 0 0 0 0 0 0 -2 0 0 4 0 0 0 -2 0 0 0 0 0 0 0 0 0 3 -7 0 -5 0 0 0 -2 -1 0 0 0 0 -2 0 0 0 0 -3 8 0 -2 6 2 0 0 -3 0 0 -8 4 0 0 0 0 -19 0 0 0 0 0 0 -3 -1 0 0 4 0 0 5 0 2 2 -6 -8 0 0 0 0 -9 0 4 0 0 0 4 -1 -4 -11 -3 8 -1 0 0 0 0 0 -2 0 0 0 0 0 2 -4 2 0 0 0 0 0 0 0 0 0 0 0 0 0 0 0 0 0 0 0 0 0 0 0 0 0 0 0 0 0 0 0 0 0 0 0 0 0 0 0 0 0 0 0 0 0 0 0 0 0 0 0 0 0 0 0 0 0 0 0 0 0 0 0 0 0 0 
-53 0 -8 4 4 6 0 0 0 0 -34 7 0 -15 0 0 0 0 -3 -6 0 -15 0 0 0 0 0 0 0 0 0 0 -15 0 -6 0 0 0 0 0 4 0 -51 0 0 -9 0 0 0 0 0 0 0 0 0 0 0 0 0 0 -51 0 -3 0 0 0 0 0 0 0 0 0 0 0 0 0 0 0 0 0 0 0 0 0 0 0 0 0 0 0 0 0 0 0 0 0 0 0 0 0 0 6 0 0 0 0 0 0 0 -4 0 0 -7 0 -51 0 8 -8 0 0 0 0 0 0 0 0 0 0 0 -4 0 0 0 0 0 0 0 -1 0 0 0 0 0 0 0 4 0 0 0 -1 0 0 0 0 0 0 0 0 0 0 0 -3 0 0 0 0 0 0 0 0 0 0 0 0 0 0 0 0 0 0 0 0 0 0 0 3 0 0 0 0 0 0 0 0 0 -3 0 0 0 0 0 0 0 0 0 0 0 0 0 0 0 0 0 0 0 0 0 0 0 0 0 -9 0 0 0 0 0 -8 0 0 1 0 0 3 0 0 0 0 0 0 0 0 0 0 0 0 0 0 0 0 0 0 0 0 0 0 0 0 0 0 0 0 0 0 0 0 0 0 0 0 0 0 0 0 0 0 0 0 0 0 0 0 0 0 0 0 0 0 0 0 0 0 0 0 -6 0 0 7 0 1 0 0 0 0 0 0 0 0 0 0 0 0 -8 0 0 0 0 0 0 0 0 0 0 0 0 0 0 0 0 0 0 0 0 0 7 0 0 0 0 0 0 0 0 0 0 0 0 0 0 7 0 0 0 0 0 0 -1 0 0 0 0 0 0 -4 0 0 0 3 0 0 0 0 0 0 0 0 0 0 0 0 0 0 0 9 0 0 -3 0 0 0 0 0 0 0 0 0 0 0 0 0 0 0 0 0 0 0 0 -9 0 0 -3 -4 0 0 -1 0 0 0 0 0 0 8 0 0 0 0 0 0 0 0 0 0 -7 0 0 0 0 0 0 0 0 0 0 0 0 0 0 0 0 0 0 0 0 0 0 0 0 0 0 0 0 0 0 0 0 0 0 0 0 0 0 0 0 0 0 0 0 0 0 0 0 0 0 0 0 0 0 0 0 0 0 0 0 0 0 0 0 0 0 0 
-95 1 -10 -44 -39 -45 -3 -10 -3 0 -15 6 -8 -1 0 -1 -3 0 -3 -5 0 0 0 0 0 0 0 2 0 0 0 -5 0 0 -5 -8 -2 0 0 0 0 -5 -36 -20 0 0 -2 1 -2 -1 9 0 0 0 -2 0 0 0 0 0 -36 0 -3 0 0 9 0 0 0 0 0 0 0 0 -45 -7 -5 0 0 -31 0 0 6 0 0 0 -5 0 0 0 0 -45 0 1 12 0 0 0 0 0 0 0 0 0 0 0 0 12 0 0 0 0 0 0 -36 0 -36 0 0 0 0 0 0 0 0 0 0 -1 0 0 0 0 0 0 0 0 0 7 0 0 0 0 0 0 0 14 0 0 0 7 0 0 0 0 0 0 0 0 0 0 0 0 0 0 0 0 0 0 0 0 0 0 0 -6 0 0 0 5 0 0 0 0 0 0 0 0 1 0 0 0 2 0 0 0 0 0 0 0 0 0 0 0 0 0 0 0 0 0 0 0 0 0 0 0 0 0 -55 0 0 0 0 0 0 0 0 -3 5 0 0 0 3 0 0 0 0 0 0 0 3 0 0 0 0 0 0 0 0 0 0 0 0 0 5 0 0 0 0 0 0 0 0 0 0 0 0 3 0 0 0 0 0 0 0 -7 0 0 0 0 0 0 -3 0 0 0 0 0 0 0 0 0 0 0 0 0 0 0 0 0 0 3 0 0 0 0 3 0 0 0 0 0 0 -12 0 0 0 0 0 7 0 0 0 0 0 0 0 0 0 0 0 0 0 0 0 0 0 0 0 0 0 0 0 0 0 0 0 0 0 0 8 7 -29 -45 0 -9 0 2 -1 0 0 1 0 0 0 -14 0 0 -3 0 0 6 0 0 0 0 -2 0 0 0 0 0 0 -40 0 0 -5 0 0 0 0 -3 1 0 0 0 0 0 0 -5 0 0 0 -3 7 0 0 0 0 4 1 0 0 0 0 -3 -1 1 -3 0 0 0 12 0 0 0 -7 0 0 0 0 0 0 0 0 0 0 0 0 0 0 0 0 0 0 0 0 0 0 0 0 0 0 0 0 0 0 0 0 0 0 0 0 0 0 0 0 0 0 0 0 0 0 0 0 0 0 0 0 0 0 0 0 0 0 0 0 0 0 0 0 0 0 0 0 0 0 0 0 0 0 0 
-74 0 -10 -10 -10 -41 0 -5 -5 0 -11 0 0 -9 0 0 0 0 -10 -6 0 -9 0 -2 -6 0 -8 0 0 2 0 0 -2 6 -5 0 -3 2 0 0 0 0 0 0 0 -9 -3 0 -2 0 0 0 0 0 -2 0 0 0 -1 0 0 0 0 -56 0 0 0 0 0 0 -6 0 2 0 0 0 0 -6 0 -3 0 0 0 0 0 1 0 0 0 0 -2 0 0 0 0 0 -2 0 0 0 0 -40 0 -1 0 0 0 0 0 0 0 0 0 0 0 0 0 0 0 5 0 0 0 5 -9 0 0 0 0 -2 0 0 0 0 0 -6 0 -10 0 0 0 0 0 0 0 0 0 0 0 -10 0 0 0 0 0 1 -1 0 0 0 0 -21 0 0 0 0 0 0 2 0 0 0 1 0 0 0 0 0 0 0 0 0 0 0 0 0 -1 0 0 0 3 0 0 0 -5 0 0 0 0 0 0 0 0 0 0 0 0 0 1 0 0 0 0 0 0 0 0 0 0 0 0 19 0 0 0 0 0 0 0 0 8 0 0 0 0 0 0 0 -9 0 0 0 0 0 0 0 0 0 0 -2 2 0 0 0 0 0 0 0 0 0 0 0 0 0 -1 0 0 -49 0 0 0 0 0 0 0 0 0 0 0 0 0 0 0 0 0 0 0 0 0 0 0 0 0 0 0 0 0 0 -1 8 0 0 0 0 0 0 -8 0 0 -5 0 0 0 0 0 0 0 0 0 0 0 0 0 0 0 0 0 0 0 2 0 0 0 0 0 0 0 0 0 0 0 0 0 0 0 0 0 0 0 0 0 0 1 0 0 0 0 1 -2 0 6 0 0 0 -1 0 -3 -8 -1 0 0 0 0 0 -3 5 0 0 0 0 0 0 0 -19 0 0 -1 0 0 -3 0 -1 1 0 0 -2 0 0 2 0 1 0 0 0 0 1 0 -4 -1 0 0 0 1 -2 -1 0 0 0 8 5 0 0 0 0 0 0 0 0 0 -2 0 0 0 0 0 0 0 0 0 0 0 0 0 0 0 0 0 0 0 0 0 0 0 0 0 0 0 0 0 0 0 0 0 0 0 0 0 0 0 0 0 0 0 0 0 0 0 0 0 0 0 0 0 0 0 0 0 0 0 0 0 0 0 0 0 0 0 0 0 0 
-95 -10 -8 -6 -6 0 0 -8 -8 0 -44 0 3 -27 0 0 0 0 -6 1 0 -26 1 -6 -87 -12 0 0 0 4 0 0 -4 -6 0 -8 -2 4 0 0 0 0 12 5 0 0 0 0 -2 -1 2 0 0 0 -2 0 0 0 1 0 12 0 0 0 0 2 0 2 0 0 -87 0 -5 0 0 0 0 -87 0 3 0 0 0 0 0 -4 0 0 0 0 2 0 0 0 -13 0 -6 0 0 0 0 0 0 1 1 0 0 -13 0 0 2 0 -4 0 12 0 12 0 0 0 0 0 0 0 0 0 0 0 0 -4 0 0 0 0 0 6 0 -27 0 0 0 -1 0 0 0 0 0 0 0 -27 0 0 -4 0 0 0 0 -4 0 0 0 0 0 0 0 0 0 0 2 0 0 0 -1 0 0 0 0 0 0 0 0 0 0 0 0 0 -16 0 0 -93 3 0 0 0 0 0 0 0 0 0 0 0 0 0 0 0 0 0 -1 0 0 0 0 0 0 0 0 0 0 0 0 0 0 0 0 -6 0 0 0 0 12 0 2 0 0 0 0 2 -34 2 0 0 0 0 0 -1 0 0 0 0 2 0 0 0 0 0 0 0 0 0 0 0 0 0 0 6 0 0 0 0 0 0 0 0 0 0 0 0 0 0 0 0 0 0 0 0 0 0 0 0 0 0 0 0 -27 0 0 0 0 12 0 0 0 0 0 -1 0 0 0 -5 0 13 0 0 0 0 0 0 0 0 0 0 0 0 0 0 0 0 0 0 0 0 0 0 2 0 0 0 0 0 0 0 0 0 0 0 0 0 -3 0 3 0 0 -2 0 0 -3 0 0 0 -6 0 0 0 0 -1 1 0 1 0 0 0 0 0 -3 0 0 -1 1 0 2 0 0 0 0 0 0 0 -3 -3 0 -1 -1 0 0 -2 0 0 0 0 0 -6 0 0 0 0 0 -9 69 0 0 0 0 -6 -1 0 0 4 0 5 -13 0 0 0 0 0 0 0 0 0 0 0 -2 0 0 0 0 0 0 0 0 0 0 0 0 0 0 0 0 0 0 0 0 0 0 0 0 0 0 0 0 0 0 0 0 0 0 0 0 0 0 0 0 0 0 0 0 0 0 0 0 0 0 0 0 0 0 0 0 0 0 0 0 0 0 0 0 0 0 0 
-41 -10 -10 -15 -13 0 0 -8 -8 0 -38 -10 -5 0 0 -3 0 2 -3 2 0 0 0 0 -3 -3 0 0 1 -2 -3 0 -29 0 2 8 -6 -2 0 -2 2 -2 -10 8 0 0 -5 0 -2 -1 8 0 0 0 -2 0 0 0 0 0 -10 0 -3 0 0 8 0 0 0 0 0 0 -3 0 0 0 0 0 0 -5 0 0 -2 0 0 -4 -2 0 0 0 0 0 0 0 0 0 0 -6 -2 0 0 0 0 0 0 0 0 0 0 0 0 0 -10 0 -10 0 -10 8 0 0 -6 0 0 2 0 0 0 0 0 4 0 0 0 0 0 0 0 -4 0 0 0 0 0 0 0 1 -2 -6 0 -4 0 0 1 0 0 1 0 1 0 -3 0 0 0 0 0 0 0 7 -2 0 0 0 0 8 0 0 0 0 -2 0 0 0 0 0 0 4 -4 1 0 0 0 0 0 0 -2 -41 0 0 5 -15 0 0 0 0 0 0 0 0 1 0 0 0 0 0 1 0 0 0 0 0 0 0 0 0 0 0 0 8 0 0 2 0 2 4 0 0 0 2 -4 -2 0 0 0 0 0 -2 0 0 0 -2 -2 0 0 0 0 0 0 0 0 0 0 0 0 0 -4 0 0 0 0 0 0 0 0 6 0 0 5 0 0 0 0 0 0 0 0 0 0 0 -59 0 0 0 0 2 0 -5 0 0 0 2 0 0 0 0 0 -2 0 0 0 -1 0 0 8 0 0 2 0 0 0 0 0 0 0 0 0 0 0 0 0 2 0 0 0 0 2 0 0 0 0 0 0 0 0 0 0 0 0 0 0 -7 0 0 0 -8 0 0 0 0 -2 0 0 0 0 -1 -1 0 0 0 0 -2 -6 7 -3 -1 0 2 15 -5 0 0 -3 0 0 0 0 0 -4 0 -4 1 1 0 1 0 0 2 0 -2 2 -3 7 0 -6 -3 0 0 0 1 -4 5 0 0 0 0 -1 0 0 -1 0 1 0 -8 0 -2 0 0 0 0 0 -2 0 0 -2 0 0 0 0 0 0 0 0 0 0 0 0 0 0 0 0 0 0 0 0 0 0 0 0 0 0 0 0 0 0 0 0 0 0 0 0 0 0 0 0 0 0 0 0 0 0 0 0 0 0 0 0 0 0 0 0 0 0 0 0 0 0 0 0 0 0 0 
-95 -1 0 -58 -50 -43 -3 -9 -8 0 -58 -41 0 -10 0 -34 -3 -6 -9 0 0 -1 -1 -6 0 -6 0 -3 -8 0 0 0 -2 0 0 0 0 0 0 0 -6 -8 -51 0 0 0 -31 -1 -2 -1 0 0 0 0 -2 2 1 0 0 0 -51 0 -3 0 0 0 0 0 0 0 0 0 -4 0 -45 0 0 0 0 -31 0 0 8 0 0 -4 -5 0 2 0 -4 -45 0 -1 0 0 -6 -15 0 -2 0 0 -28 0 -1 0 0 0 2 0 0 0 -19 0 -51 0 -51 0 0 2 -6 0 0 2 0 0 5 0 0 -2 0 0 0 0 0 0 0 -6 0 0 0 -2 0 -5 0 -24 0 -6 0 -6 0 0 8 0 0 1 2 8 0 0 0 0 0 0 0 0 0 0 0 0 0 0 0 8 0 0 0 5 0 0 0 0 0 0 0 0 3 0 0 0 2 0 0 0 3 0 0 0 0 0 0 0 0 0 0 5 0 0 0 0 0 0 0 -5 4 0 -50 0 0 4 0 0 0 0 0 -86 0 0 0 0 4 0 2 0 0 0 0 2 0 1 0 -50 0 0 -5 -2 0 0 0 0 0 -2 5 0 0 0 0 0 0 0 3 0 2 -3 0 -6 0 0 0 0 0 0 0 15 0 0 0 0 0 0 3 3 0 0 0 0 0 0 0 4 0 0 3 0 0 0 0 0 0 4 0 0 0 0 -3 -2 0 0 0 0 0 0 0 3 0 0 0 1 0 0 0 0 0 0 0 0 0 0 0 0 0 -18 0 0 2 0 0 0 0 0 0 0 0 0 0 0 0 0 0 -7 0 -45 -1 0 0 2 0 1 0 0 0 0 0 -26 -1 -2 -5 0 0 6 -6 0 0 0 -2 2 0 -14 4 5 -3 50 0 0 0 0 0 0 -4 3 -1 0 0 0 8 0 2 -5 -2 0 0 6 -15 0 0 -4 -3 0 3 0 0 0 0 -3 -1 0 3 -13 0 0 0 0 -3 0 -1 0 0 0 0 0 0 -56 -2 0 0 0 0 0 0 0 0 0 0 0 0 0 0 0 0 0 0 0 0 0 0 0 0 0 0 0 0 0 0 0 0 0 0 0 0 0 0 0 0 0 0 0 0 0 0 0 0 0 0 0 0 0 0 0 0 0 0 0 0 0 0 0 0 0 0 0 
-16 -3 -6 -10 -10 0 -2 0 0 0 -2 -10 0 -1 0 -10 -2 0 0 -6 0 -1 -1 0 0 -3 0 -2 0 0 0 0 0 0 -6 8 -5 0 0 0 0 0 0 8 0 0 -10 0 0 0 0 0 0 0 0 -5 0 0 0 0 0 0 0 0 0 0 0 0 0 0 0 0 1 0 0 0 0 0 0 -2 0 0 -2 0 0 0 0 0 0 0 4 0 0 0 0 0 0 0 0 0 0 0 0 0 0 0 0 0 0 0 0 -1 0 0 0 0 0 0 0 0 0 0 0 0 0 0 0 0 0 0 0 0 0 0 0 0 0 0 0 0 0 0 0 0 0 -2 0 0 0 0 0 0 0 0 0 0 0 0 0 0 0 0 0 0 0 0 0 0 0 -4 0 0 0 0 0 0 0 0 0 0 0 0 0 0 0 0 0 0 0 0 0 0 0 0 0 0 0 0 0 0 0 0 0 0 0 0 0 0 1 0 0 0 0 0 2 0 0 0 0 8 0 0 0 0 0 0 0 0 0 0 0 0 0 0 0 0 0 0 0 -1 0 0 0 0 2 0 0 0 0 0 0 0 0 0 -4 0 0 0 0 0 0 0 0 0 0 0 0 0 0 0 0 0 0 0 0 0 0 0 0 0 0 0 0 0 0 0 0 0 0 6 0 0 0 0 0 0 0 0 0 0 0 0 0 0 0 0 0 0 0 0 0 0 0 0 0 0 0 0 0 -2 0 0 0 0 0 0 0 0 0 0 0 0 0 0 0 0 0 0 0 0 0 0 0 0 0 0 0 0 0 0 8 0 0 0 0 -2 0 -5 0 0 0 0 0 2 0 0 0 0 0 -2 0 0 0 0 0 0 0 0 0 0 -3 0 0 0 0 0 0 0 0 0 0 0 1 0 -2 0 0 0 0 0 0 0 0 0 0 -6 0 0 0 0 0 0 0 0 0 0 0 0 0 0 0 0 0 0 0 0 2 0 0 0 0 0 0 0 0 0 0 0 0 0 0 0 0 0 0 0 0 0 0 0 0 0 0 0 0 0 0 0 0 0 0 0 0 0 0 0 0 0 0 0 0 0 0 0 0 0 0 0 0 0 0 0 0 0 0 0 0 0 0 0 0 0 0 0 0 0 0 0 0 0 
#OUTPUT END
Model has been successfully processed
